1512319.0
1263
0 1 3 4 7 8 9 10 11 12 13 14 15 16 18 19 20 21 22 23 25 26 27 28 29 30 33 34 35 38 41 42 43 44 45 46 47 49 51 52 56 57 58 60 61 62 63 64 68 71 72 73 75 77 78 79 81 82 83 84 85 86 88 90 91 93 94 95 96 97 98 